solution status: optimal solution found
objective value:                                19514
x...0217                                            1 	(obj:0)
x...1113                                            2 	(obj:0)
x...1111                                            2 	(obj:0)
x...1016                                            1 	(obj:0)
x...1014                                            4 	(obj:0)
x...1010                                            4 	(obj:0)
x...0813                                            3 	(obj:0)
x...0711                                            2 	(obj:0)
x...0515                                            2 	(obj:0)
x...0312                                            9 	(obj:0)
x...0310                                            2 	(obj:0)
x...0216                                            1 	(obj:0)
x...0909                                            1 	(obj:1652)
x...0609                                            3 	(obj:5954)
